0000000000000000
0000000000000000
0000000000000000
0001111100000000
0001111100000000
0000000100000000
0000000100000000
0000000100000000
0000000100000000
0001111100000000
0001111000000000
0000000000000000
0000000000000000
0000000000000000
0000000000000000
0000000000000000
